33D32945 STP File, STP Format Version 1.0

SECTION Comments
Name "edge_n14_d4_s37"
Problem "Euclidean Steiner Tree Problem"
Remark "Generated with STPGenerator. 4 dimensions."
END

SECTION Graph
Nodes 14
END

SECTION Coordinates
DDDD 0 0.2394123931 0.2394123931 0.2394123931 0.2394123931
DDDD 1 0.7611420498 0.7611420498 0.7611420498 0.7611420498
DDDD 2 0.1745217923 0.1745217923 0.1745217923 0.1745217923
DDDD 3 0.8194240331 0.8194240331 0.8194240331 0.8194240331
DDDD 4 0.0320747178 0.0320747178 0.0320747178 0.0320747178
DDDD 5 0.6424573714 0.6424573714 0.6424573714 0.6424573714
DDDD 6 0.3284930686 0.3284930686 0.3284930686 0.3284930686
DDDD 7 0.8837608927 0.8837608927 0.8837608927 0.8837608927
DDDD 8 0.2698044499 0.2698044499 0.2698044499 0.2698044499
DDDD 9 0.5980566296 0.5980566296 0.5980566296 0.5980566296
DDDD 10 0.3121092172 0.3121092172 0.3121092172 0.3121092172
DDDD 11 0.4504713320 0.4504713320 0.4504713320 0.4504713320
DDDD 12 0.8071258347 0.8071258347 0.8071258347 0.8071258347
DDDD 13 0.3703712553 0.3703712553 0.3703712553 0.3703712553
END
